c forall Vars 28
c Exists Vars 59
c Introduced Vars 24
c Original Exists Vars 35
c Eliminated Vars number 48
p cnf 87 488
e 1 2 3 4 5 6 7 8 9 10 11 12 13 14 15 16 17 18 19 20 21 22 23 24 25 26 27 28 29 30 31 32 33 34 35 0
a 36 37 38 39 40 41 42 43 44 45 46 47 48 49 50 51 52 53 54 55 56 57 58 59 60 61 62 63 0
e 64 65 66 67 68 69 70 71 72 73 74 75 76 77 78 79 80 81 82 83 84 85 86 87 0
30 0
-30 29 0
-33 0
32 0
-32 31 0
30 64 0
-30 29 64 0
-33 64 0
32 64 0
-32 31 64 0
23 64 0
-22 64 0
-26 64 0
25 64 0
-24 64 0
-35 -33 -30 -29 22 -64 0
-35 -33 -30 29 -22 -64 0
-35 -33 30 -23 -29 -64 0
-35 -33 30 -23 29 22 -64 0
-35 -33 30 23 29 -64 0
-35 -33 30 23 -29 22 -64 0
-35 33 -30 -29 22 -64 0
-35 33 -30 29 -22 -64 0
-35 33 30 23 -64 0
-35 33 30 -23 29 22 -64 0
-35 33 30 -23 -29 -22 -64 0
35 -30 23 -64 0
35 -30 -23 -29 22 -64 0
35 -30 -23 29 -22 -64 0
35 30 -23 -64 0
35 30 23 -29 22 -64 0
35 30 23 29 -22 -64 0
-35 -32 25 -64 0
-35 -32 -25 -31 24 -64 0
-35 -32 -25 31 -24 -64 0
-35 32 -25 -64 0
-35 32 25 -31 24 -64 0
-35 32 25 31 -24 -64 0
35 -34 -33 -32 -31 24 -64 0
35 -34 -33 -32 31 -24 -64 0
35 -34 -33 32 -25 -31 -64 0
35 -34 -33 32 -25 31 24 -64 0
35 -34 -33 32 25 31 -64 0
35 -34 -33 32 25 -31 24 -64 0
35 -34 33 -32 -31 24 -64 0
35 -34 33 -32 31 -24 -64 0
35 -34 33 32 25 -64 0
35 -34 33 32 -25 31 24 -64 0
35 -34 33 32 -25 -31 -24 -64 0
35 34 -32 25 -64 0
35 34 -32 -25 -31 24 -64 0
35 34 -32 -25 31 -24 -64 0
35 34 32 -25 -64 0
35 34 32 25 -31 24 -64 0
35 34 32 25 31 -24 -64 0
-26 32 31 65 35 -34 -64 0
-26 33 -32 65 35 -34 -64 0
-26 33 32 -31 65 35 -34 -64 0
-26 -32 -65 35 -34 -64 0
-26 32 31 -65 35 -34 -64 0
-26 35 33 66 -64 0
-26 -35 30 29 67 66 -64 0
-26 -35 33 -30 67 66 -64 0
-26 -35 33 30 -29 67 66 -64 0
-26 -35 -30 -67 66 -64 0
-26 -35 30 29 -67 66 -64 0
-26 -35 -66 -64 0
-26 35 34 -66 -64 0
23 68 0
-23 22 68 0
-26 68 0
25 68 0
-25 24 68 0
16 68 0
-15 68 0
-19 68 0
18 68 0
-17 68 0
-28 -26 -23 -22 15 -68 0
-28 -26 -23 22 -15 -68 0
-28 -26 23 -16 -22 -68 0
-28 -26 23 -16 22 15 -68 0
-28 -26 23 16 22 -68 0
-28 -26 23 16 -22 15 -68 0
-28 26 -23 -22 15 -68 0
-28 26 -23 22 -15 -68 0
-28 26 23 16 -68 0
-28 26 23 -16 22 15 -68 0
-28 26 23 -16 -22 -15 -68 0
28 -23 16 -68 0
28 -23 -16 -22 15 -68 0
28 -23 -16 22 -15 -68 0
28 23 -16 -68 0
28 23 16 -22 15 -68 0
28 23 16 22 -15 -68 0
-28 -25 18 -68 0
-28 -25 -18 -24 17 -68 0
-28 -25 -18 24 -17 -68 0
-28 25 -18 -68 0
-28 25 18 -24 17 -68 0
-28 25 18 24 -17 -68 0
28 -27 -26 -25 -24 17 -68 0
28 -27 -26 -25 24 -17 -68 0
28 -27 -26 25 -18 -24 -68 0
28 -27 -26 25 -18 24 17 -68 0
28 -27 -26 25 18 24 -68 0
28 -27 -26 25 18 -24 17 -68 0
28 -27 26 -25 -24 17 -68 0
28 -27 26 -25 24 -17 -68 0
28 -27 26 25 18 -68 0
28 -27 26 25 -18 24 17 -68 0
28 -27 26 25 -18 -24 -17 -68 0
28 27 -25 18 -68 0
28 27 -25 -18 -24 17 -68 0
28 27 -25 -18 24 -17 -68 0
28 27 25 -18 -68 0
28 27 25 18 -24 17 -68 0
28 27 25 18 24 -17 -68 0
-19 25 24 69 28 -27 -68 0
-19 26 -25 69 28 -27 -68 0
-19 26 25 -24 69 28 -27 -68 0
-19 -25 -69 28 -27 -68 0
-19 25 24 -69 28 -27 -68 0
-19 28 26 70 -68 0
-19 -28 23 22 71 70 -68 0
-19 -28 26 -23 71 70 -68 0
-19 -28 26 23 -22 71 70 -68 0
-19 -28 -23 -71 70 -68 0
-19 -28 23 22 -71 70 -68 0
-19 -28 -70 -68 0
-19 28 27 -70 -68 0
16 72 0
-16 15 72 0
-19 72 0
18 72 0
-18 17 72 0
9 72 0
-8 72 0
-12 72 0
11 72 0
-10 72 0
-21 -19 -16 -15 8 -72 0
-21 -19 -16 15 -8 -72 0
-21 -19 16 -9 -15 -72 0
-21 -19 16 -9 15 8 -72 0
-21 -19 16 9 15 -72 0
-21 -19 16 9 -15 8 -72 0
-21 19 -16 -15 8 -72 0
-21 19 -16 15 -8 -72 0
-21 19 16 9 -72 0
-21 19 16 -9 15 8 -72 0
-21 19 16 -9 -15 -8 -72 0
21 -16 9 -72 0
21 -16 -9 -15 8 -72 0
21 -16 -9 15 -8 -72 0
21 16 -9 -72 0
21 16 9 -15 8 -72 0
21 16 9 15 -8 -72 0
-21 -18 11 -72 0
-21 -18 -11 -17 10 -72 0
-21 -18 -11 17 -10 -72 0
-21 18 -11 -72 0
-21 18 11 -17 10 -72 0
-21 18 11 17 -10 -72 0
21 -20 -19 -18 -17 10 -72 0
21 -20 -19 -18 17 -10 -72 0
21 -20 -19 18 -11 -17 -72 0
21 -20 -19 18 -11 17 10 -72 0
21 -20 -19 18 11 17 -72 0
21 -20 -19 18 11 -17 10 -72 0
21 -20 19 -18 -17 10 -72 0
21 -20 19 -18 17 -10 -72 0
21 -20 19 18 11 -72 0
21 -20 19 18 -11 17 10 -72 0
21 -20 19 18 -11 -17 -10 -72 0
21 20 -18 11 -72 0
21 20 -18 -11 -17 10 -72 0
21 20 -18 -11 17 -10 -72 0
21 20 18 -11 -72 0
21 20 18 11 -17 10 -72 0
21 20 18 11 17 -10 -72 0
-12 18 17 73 21 -20 -72 0
-12 19 -18 73 21 -20 -72 0
-12 19 18 -17 73 21 -20 -72 0
-12 -18 -73 21 -20 -72 0
-12 18 17 -73 21 -20 -72 0
-12 21 19 74 -72 0
-12 -21 16 15 75 74 -72 0
-12 -21 19 -16 75 74 -72 0
-12 -21 19 16 -15 75 74 -72 0
-12 -21 -16 -75 74 -72 0
-12 -21 16 15 -75 74 -72 0
-12 -21 -74 -72 0
-12 21 20 -74 -72 0
9 76 0
-9 8 76 0
-12 76 0
11 76 0
-11 10 76 0
2 76 0
-1 76 0
-5 76 0
4 76 0
-3 76 0
-14 -12 -9 -8 1 -76 0
-14 -12 -9 8 -1 -76 0
-14 -12 9 -2 -8 -76 0
-14 -12 9 -2 8 1 -76 0
-14 -12 9 2 8 -76 0
-14 -12 9 2 -8 1 -76 0
-14 12 -9 -8 1 -76 0
-14 12 -9 8 -1 -76 0
-14 12 9 2 -76 0
-14 12 9 -2 8 1 -76 0
-14 12 9 -2 -8 -1 -76 0
14 -9 2 -76 0
14 -9 -2 -8 1 -76 0
14 -9 -2 8 -1 -76 0
14 9 -2 -76 0
14 9 2 -8 1 -76 0
14 9 2 8 -1 -76 0
-14 -11 4 -76 0
-14 -11 -4 -10 3 -76 0
-14 -11 -4 10 -3 -76 0
-14 11 -4 -76 0
-14 11 4 -10 3 -76 0
-14 11 4 10 -3 -76 0
14 -13 -12 -11 -10 3 -76 0
14 -13 -12 -11 10 -3 -76 0
14 -13 -12 11 -4 -10 -76 0
14 -13 -12 11 -4 10 3 -76 0
14 -13 -12 11 4 10 -76 0
14 -13 -12 11 4 -10 3 -76 0
14 -13 12 -11 -10 3 -76 0
14 -13 12 -11 10 -3 -76 0
14 -13 12 11 4 -76 0
14 -13 12 11 -4 10 3 -76 0
14 -13 12 11 -4 -10 -3 -76 0
14 13 -11 4 -76 0
14 13 -11 -4 -10 3 -76 0
14 13 -11 -4 10 -3 -76 0
14 13 11 -4 -76 0
14 13 11 4 -10 3 -76 0
14 13 11 4 10 -3 -76 0
-5 11 10 77 14 -13 -76 0
-5 12 -11 77 14 -13 -76 0
-5 12 11 -10 77 14 -13 -76 0
-5 -11 -77 14 -13 -76 0
-5 11 10 -77 14 -13 -76 0
-5 14 12 78 -76 0
-5 -14 9 8 79 78 -76 0
-5 -14 12 -9 79 78 -76 0
-5 -14 12 9 -8 79 78 -76 0
-5 -14 -9 -79 78 -76 0
-5 -14 9 8 -79 78 -76 0
-5 -14 -78 -76 0
-5 14 13 -78 -76 0
-58 -57 61 -60 -59 -51 50 54 -53 52 82 81 80 0
-58 -57 61 -60 -59 63 84 83 82 81 80 0
-58 -57 61 -60 -59 85 84 83 82 81 80 0
-58 -57 61 -60 -59 -50 86 85 84 83 82 81 80 0
-58 -57 61 -60 -59 -86 85 84 83 82 81 80 0
-58 -57 61 -60 -59 51 -50 -86 85 84 83 82 81 80 0
-58 -57 61 -60 -59 -50 86 -85 84 83 82 81 80 0
-58 -57 61 -60 -59 -86 -85 84 83 82 81 80 0
-58 -57 61 -60 -59 -51 50 -86 -85 84 83 82 81 80 0
-58 -57 61 -60 -59 -63 -84 83 82 81 80 0
-58 -57 61 -60 -59 -51 -50 85 -84 83 82 81 80 0
-58 -57 61 -60 -59 -85 -84 83 82 81 80 0
-58 -57 61 -60 -59 51 -50 -85 -84 83 82 81 80 0
-58 -57 61 -60 -59 63 85 84 -83 82 81 80 0
-58 -57 61 -60 -59 -53 -52 86 85 84 -83 82 81 80 0
-58 -57 61 -60 -59 -86 85 84 -83 82 81 80 0
-58 -57 61 -60 -59 53 -52 -86 85 84 -83 82 81 80 0
-58 -57 61 -60 -59 -63 -85 84 -83 82 81 80 0
-58 -57 61 -60 -59 62 86 -85 84 -83 82 81 80 0
-58 -57 61 -60 -59 86 86 -85 84 -83 82 81 80 0
-58 -57 61 -60 -59 -52 87 86 86 -85 84 -83 82 81 80 0
-58 -57 61 -60 -59 -87 86 86 -85 84 -83 82 81 80 0
-58 -57 61 -60 -59 53 -52 -87 86 86 -85 84 -83 82 81 80 0
-58 -57 61 -60 -59 -52 87 -86 86 -85 84 -83 82 81 80 0
-58 -57 61 -60 -59 -87 -86 86 -85 84 -83 82 81 80 0
-58 -57 61 -60 -59 -53 52 -87 -86 86 -85 84 -83 82 81 80 0
-58 -57 61 -60 -59 -62 -86 -85 84 -83 82 81 80 0
-58 -57 61 -60 -59 -53 -52 86 -86 -85 84 -83 82 81 80 0
-58 -57 61 -60 -59 -86 -86 -85 84 -83 82 81 80 0
-58 -57 61 -60 -59 53 -52 -86 -86 -85 84 -83 82 81 80 0
-58 -57 61 -60 -59 -54 85 -84 -83 82 81 80 0
-58 -57 61 -60 -59 85 -84 -83 82 81 80 0
-58 -57 61 -60 -59 85 -84 -83 82 81 80 0
-58 -57 61 -60 -59 85 -84 -83 82 81 80 0
-58 -57 61 -60 -59 -63 85 -84 -83 82 81 80 0
-58 -57 61 -60 -59 -62 85 -84 -83 82 81 80 0
-58 -57 61 -60 -59 -63 85 -84 -83 82 81 80 0
-58 -57 61 -60 -59 -62 85 -84 -83 82 81 80 0
-58 -57 61 -60 -59 63 85 -84 -83 82 81 80 0
-58 -57 61 -60 -59 85 -84 -83 82 81 80 0
-58 -57 61 -60 -59 85 -84 -83 82 81 80 0
-58 -57 61 -60 -59 85 -84 -83 82 81 80 0
-58 -57 61 -60 -59 -63 85 -84 -83 82 81 80 0
-58 -57 61 -60 -59 54 -85 -84 -83 82 81 80 0
-58 -57 61 -60 -59 -63 86 -85 -84 -83 82 81 80 0
-58 -57 61 -60 -59 63 62 86 -85 -84 -83 82 81 80 0
-58 -57 61 -60 -59 -63 87 -86 -85 -84 -83 82 81 80 0
-58 -57 61 -60 -59 63 -87 -86 -85 -84 -83 82 81 80 0
-58 -57 61 -60 -59 63 -62 -86 -85 -84 -83 82 81 80 0
-51 -50 54 -53 -52 -44 43 47 -46 45 -82 81 80 0
56 84 83 -82 81 80 0
54 85 84 83 -82 81 80 0
51 86 85 84 83 -82 81 80 0
50 43 86 85 84 83 -82 81 80 0
-43 -50 86 85 84 83 -82 81 80 0
-51 -86 85 84 83 -82 81 80 0
44 -50 -43 -86 85 84 83 -82 81 80 0
50 -43 -44 -86 85 84 83 -82 81 80 0
-54 -85 84 83 -82 81 80 0
51 86 -85 84 83 -82 81 80 0
50 43 86 -85 84 83 -82 81 80 0
-43 -50 86 -85 84 83 -82 81 80 0
-51 -86 -85 84 83 -82 81 80 0
-44 -50 43 -86 -85 84 83 -82 81 80 0
-44 -43 50 -86 -85 84 83 -82 81 80 0
-56 -84 83 -82 81 80 0
51 85 -84 83 -82 81 80 0
-44 50 43 85 -84 83 -82 81 80 0
-44 -43 -50 85 -84 83 -82 81 80 0
-51 -85 -84 83 -82 81 80 0
44 50 43 -85 -84 83 -82 81 80 0
44 -43 -50 -85 -84 83 -82 81 80 0
56 85 84 -83 -82 81 80 0
53 86 85 84 -83 -82 81 80 0
-46 52 45 86 85 84 -83 -82 81 80 0
-46 -45 -52 86 85 84 -83 -82 81 80 0
-53 -86 85 84 -83 -82 81 80 0
46 52 45 -86 85 84 -83 -82 81 80 0
46 -45 -52 -86 85 84 -83 -82 81 80 0
-56 -85 84 -83 -82 81 80 0
55 86 -85 84 -83 -82 81 80 0
54 86 86 -85 84 -83 -82 81 80 0
53 87 86 86 -85 84 -83 -82 81 80 0
52 45 87 86 86 -85 84 -83 -82 81 80 0
-45 -52 87 86 86 -85 84 -83 -82 81 80 0
-53 -87 86 86 -85 84 -83 -82 81 80 0
46 -52 -45 -87 86 86 -85 84 -83 -82 81 80 0
52 -45 -46 -87 86 86 -85 84 -83 -82 81 80 0
-54 -86 86 -85 84 -83 -82 81 80 0
53 87 -86 86 -85 84 -83 -82 81 80 0
52 45 87 -86 86 -85 84 -83 -82 81 80 0
-45 -52 87 -86 86 -85 84 -83 -82 81 80 0
-53 -87 -86 86 -85 84 -83 -82 81 80 0
-46 -52 45 -87 -86 86 -85 84 -83 -82 81 80 0
-46 -45 52 -87 -86 86 -85 84 -83 -82 81 80 0
-55 -86 -85 84 -83 -82 81 80 0
53 86 -86 -85 84 -83 -82 81 80 0
-46 52 45 86 -86 -85 84 -83 -82 81 80 0
-46 -45 -52 86 -86 -85 84 -83 -82 81 80 0
-53 -86 -86 -85 84 -83 -82 81 80 0
46 52 45 -86 -86 -85 84 -83 -82 81 80 0
46 -45 -52 -86 -86 -85 84 -83 -82 81 80 0
-47 85 -84 -83 -82 81 80 0
-53 85 -84 -83 -82 81 80 0
52 85 -84 -83 -82 81 80 0
-54 85 -84 -83 -82 81 80 0
-53 85 -84 -83 -82 81 80 0
-52 85 -84 -83 -82 81 80 0
-56 85 -84 -83 -82 81 80 0
-55 85 -84 -83 -82 81 80 0
-56 85 -84 -83 -82 81 80 0
-55 85 -84 -83 -82 81 80 0
56 85 -84 -83 -82 81 80 0
-51 85 -84 -83 -82 81 80 0
50 85 -84 -83 -82 81 80 0
-54 85 -84 -83 -82 81 80 0
-51 85 -84 -83 -82 81 80 0
-50 85 -84 -83 -82 81 80 0
-56 85 -84 -83 -82 81 80 0
-54 85 -84 -83 -82 81 80 0
47 -85 -84 -83 -82 81 80 0
-53 -54 86 -85 -84 -83 -82 81 80 0
53 -52 -54 86 -85 -84 -83 -82 81 80 0
53 -52 86 -85 -84 -83 -82 81 80 0
-56 86 -85 -84 -83 -82 81 80 0
56 55 86 -85 -84 -83 -82 81 80 0
-56 87 -86 -85 -84 -83 -82 81 80 0
-54 87 -86 -85 -84 -83 -82 81 80 0
56 -87 -86 -85 -84 -83 -82 81 80 0
-51 -54 -87 -86 -85 -84 -83 -82 81 80 0
51 -50 -54 -87 -86 -85 -84 -83 -82 81 80 0
51 -50 -87 -86 -85 -84 -83 -82 81 80 0
56 -55 -86 -85 -84 -83 -82 81 80 0
-44 -43 47 -46 -45 -37 36 40 -39 38 -81 80 0
49 83 82 -81 80 0
47 84 83 82 -81 80 0
44 85 84 83 82 -81 80 0
43 36 85 84 83 82 -81 80 0
-36 -43 85 84 83 82 -81 80 0
-44 -85 84 83 82 -81 80 0
37 -43 -36 -85 84 83 82 -81 80 0
43 -36 -37 -85 84 83 82 -81 80 0
-47 -84 83 82 -81 80 0
44 85 -84 83 82 -81 80 0
43 36 85 -84 83 82 -81 80 0
-36 -43 85 -84 83 82 -81 80 0
-44 -85 -84 83 82 -81 80 0
-37 -43 36 -85 -84 83 82 -81 80 0
-37 -36 43 -85 -84 83 82 -81 80 0
-49 -83 82 -81 80 0
44 84 -83 82 -81 80 0
-37 43 36 84 -83 82 -81 80 0
-37 -36 -43 84 -83 82 -81 80 0
-44 -84 -83 82 -81 80 0
37 43 36 -84 -83 82 -81 80 0
37 -36 -43 -84 -83 82 -81 80 0
49 84 83 -82 -81 80 0
46 85 84 83 -82 -81 80 0
-39 45 38 85 84 83 -82 -81 80 0
-39 -38 -45 85 84 83 -82 -81 80 0
-46 -85 84 83 -82 -81 80 0
39 45 38 -85 84 83 -82 -81 80 0
39 -38 -45 -85 84 83 -82 -81 80 0
-49 -84 83 -82 -81 80 0
48 85 -84 83 -82 -81 80 0
47 85 85 -84 83 -82 -81 80 0
46 86 85 85 -84 83 -82 -81 80 0
45 38 86 85 85 -84 83 -82 -81 80 0
-38 -45 86 85 85 -84 83 -82 -81 80 0
-46 -86 85 85 -84 83 -82 -81 80 0
39 -45 -38 -86 85 85 -84 83 -82 -81 80 0
45 -38 -39 -86 85 85 -84 83 -82 -81 80 0
-47 -85 85 -84 83 -82 -81 80 0
46 86 -85 85 -84 83 -82 -81 80 0
45 38 86 -85 85 -84 83 -82 -81 80 0
-38 -45 86 -85 85 -84 83 -82 -81 80 0
-46 -86 -85 85 -84 83 -82 -81 80 0
-39 -45 38 -86 -85 85 -84 83 -82 -81 80 0
-39 -38 45 -86 -85 85 -84 83 -82 -81 80 0
-48 -85 -84 83 -82 -81 80 0
46 85 -85 -84 83 -82 -81 80 0
-39 45 38 85 -85 -84 83 -82 -81 80 0
-39 -38 -45 85 -85 -84 83 -82 -81 80 0
-46 -85 -85 -84 83 -82 -81 80 0
39 45 38 -85 -85 -84 83 -82 -81 80 0
39 -38 -45 -85 -85 -84 83 -82 -81 80 0
-40 84 -83 -82 -81 80 0
-46 84 -83 -82 -81 80 0
45 84 -83 -82 -81 80 0
-47 84 -83 -82 -81 80 0
-46 84 -83 -82 -81 80 0
-45 84 -83 -82 -81 80 0
-49 84 -83 -82 -81 80 0
-48 84 -83 -82 -81 80 0
-49 84 -83 -82 -81 80 0
-48 84 -83 -82 -81 80 0
49 84 -83 -82 -81 80 0
-44 84 -83 -82 -81 80 0
43 84 -83 -82 -81 80 0
-47 84 -83 -82 -81 80 0
-44 84 -83 -82 -81 80 0
-43 84 -83 -82 -81 80 0
-49 84 -83 -82 -81 80 0
-47 84 -83 -82 -81 80 0
40 -84 -83 -82 -81 80 0
-46 -47 85 -84 -83 -82 -81 80 0
46 -45 -47 85 -84 -83 -82 -81 80 0
46 -45 85 -84 -83 -82 -81 80 0
-49 85 -84 -83 -82 -81 80 0
49 48 85 -84 -83 -82 -81 80 0
-49 86 -85 -84 -83 -82 -81 80 0
-47 86 -85 -84 -83 -82 -81 80 0
49 -86 -85 -84 -83 -82 -81 80 0
-44 -47 -86 -85 -84 -83 -82 -81 80 0
44 -43 -47 -86 -85 -84 -83 -82 -81 80 0
44 -43 -86 -85 -84 -83 -82 -81 80 0
49 -48 -85 -84 -83 -82 -81 80 0
7 42 6 41 85 84 83 82 81 -80 0
7 42 -41 -6 85 84 83 82 81 -80 0
-42 -7 6 41 85 84 83 82 81 -80 0
-42 -7 -41 -6 85 84 83 82 81 -80 0
5 40 -85 84 83 82 81 -80 0
-40 -5 -85 84 83 82 81 -80 0
4 39 -84 83 82 81 -80 0
-39 -4 -84 83 82 81 -80 0
3 38 -83 82 81 -80 0
-38 -3 -83 82 81 -80 0
2 37 -82 81 -80 0
-37 -2 -82 81 -80 0
1 36 -81 -80 0
-36 -1 -81 -80 0
